NAME : lr110.1159344.tour
COMMENT : Cost = 0_1159344
COMMENT : Found by LKH [Keld Helsgaun] Fri Sep 15 17:42:01 2017
TYPE : TOUR
DIMENSION : 114
TOUR_SECTION
1
93
60
100
99
86
88
58
16
44
43
14
59
107
96
15
45
39
87
18
85
46
61
90
113
63
12
20
48
37
50
65
33
103
71
110
28
70
32
64
91
11
102
21
67
66
112
22
73
76
57
24
68
40
26
56
5
106
84
6
17
62
7
95
97
98
38
101
92
94
109
31
72
10
52
82
35
36
34
104
2
108
3
42
23
75
74
41
54
27
55
25
114
29
13
77
30
79
80
4
51
78
105
69
81
111
53
89
8
83
19
9
47
49
-1
EOF
